(set-info :smt-lib-version 2.6)
(set-logic QF_UF)
(set-info :source |
Source: The calcolus of computation (Bradley-Manna) 
Translator: Andrea Mangrella. |)
(set-info :category "crafted")
(set-info :status sat)
(declare-sort S1 0)
(declare-fun x () S1)
(declare-fun y () S1)
(declare-fun f (S1) S1)
(assert (let ((f1 (f x)) (f2 (f y))) (and (= f1 f2) (not (= x y)) ) ))
(check-sat)
(exit)
